
Gurobi 6.5.2 (linux64) logging started Wed Aug 31 10:35:26 2016

Optimize a model with 41 rows, 153 columns and 351 nonzeros
Coefficient statistics:
  Matrix range    [1e+00, 2e+00]
  Objective range [4e+00, 1e+02]
  Bounds range    [1e+00, 1e+00]
  RHS range       [1e+00, 1e+00]
Found heuristic solution: objective 923
Presolve removed 12 rows and 3 columns
Presolve time: 0.00s
Presolved: 29 rows, 150 columns, 317 nonzeros
Variable types: 0 continuous, 150 integer (150 binary)

Root relaxation: objective 4.485000e+02, 25 iterations, 0.00 seconds

    Nodes    |    Current Node    |     Objective Bounds      |     Work
 Expl Unexpl |  Obj  Depth IntInf | Incumbent    BestBd   Gap | It/Node Time

     0     0  448.50000    0    8  923.00000  448.50000  51.4%     -    0s
H    0     0                     688.0000000  448.50000  34.8%     -    0s
H    0     0                     541.0000000  448.50000  17.1%     -    0s
H    0     0                     477.0000000  448.50000  5.97%     -    0s
*    0     0               0     464.0000000  464.00000  0.00%     -    0s

Cutting planes:
  Gomory: 6
  Cover: 8
  Zero half: 1

Explored 0 nodes (37 simplex iterations) in 0.00 seconds
Thread count was 8 (of 8 available processors)

Optimal solution found (tolerance 1.00e-04)
Best objective 4.640000000000e+02, best bound 4.640000000000e+02, gap 0.0%
